5 1 5 1 8 4 5 1 5 3 8 5 
5 1 8 1 13 3 12 2 10 0 10 3 8 3
3 1 5 1 6 3 3 3 3 1 5 1 6 5 
3 1 7 1 12 1 10 1 8 3 12 3 13 5 
1 1 1 1 13 5 10 1 6 1 8 5 5 1 1 1 6 3 8 3 10 3 8 5 
1 1 1 1 13 5 10 1 6 1 8 5 5 1 1 1 6 3 5 3 3 3 1 5 